# Solution for model GasLib-40
# Objective value = 1.3632329259445605e+01
loadshed[innode_1] 0
loadshed[innode_2] 0
loadshed[innode_3] 0
loadshed[innode_4] 0
loadshed[innode_5] 0
loadshed[innode_6] 0
loadshed[innode_7] 0
loadshed[innode_8] 0
loadshed[source_1] -1.5181161910792396e-01
loadshed[source_2] 1.2814660532536104e-02
loadshed[source_3] 2.2522825281470937e-01
loadshed[sink_1] 0
loadshed[sink_2] 0
loadshed[sink_3] 0
loadshed[sink_4] 0
loadshed[sink_5] 0
loadshed[sink_6] 0
loadshed[sink_7] 0
loadshed[sink_8] 0
loadshed[sink_9] 0
loadshed[sink_10] 0
loadshed[sink_11] 0
loadshed[sink_12] 8.3356917764762928e-01
loadshed[sink_13] 0
loadshed[sink_14] 0
loadshed[sink_15] 0
loadshed[sink_16] 0
loadshed[sink_17] 0
loadshed[sink_18] 0
loadshed[sink_19] 0
loadshed[sink_20] 0
loadshed[sink_21] 0
loadshed[sink_22] 0
loadshed[sink_23] 0
loadshed[sink_24] 0
loadshed[sink_25] 0
loadshed[sink_26] 0
loadshed[sink_27] 0
loadshed[sink_28] 0
loadshed[sink_29] 0
flow[source_1,sink_3] 1.8209021881244365e+02
flow[innode_1,sink_16] 1.6354166666666970e+01
flow[innode_6,sink_13] -8.0047140602293751e+00
flow[sink_13,sink_14] -2.4358880726896043e+01
flow[sink_14,sink_10] -4.0713047393562711e+01
flow[sink_25,sink_26] 1.9897183740722767e+02
flow[sink_26,sink_9] 1.4990933740722204e+02
flow[sink_9,sink_18] 1.3355517074055538e+02
flow[sink_26,sink_4] 3.2708333333338928e+01
flow[sink_4,sink_20] 0
flow[sink_18,sink_6] 1.1720100407388873e+02
flow[sink_25,innode_8] -1.4938188547910727e+02
flow[sink_6,sink_7] 6.8138504073888271e+01
flow[sink_6,sink_22] 3.2708333333333641e+01
flow[sink_7,sink_24] 35.4301707405544
flow[sink_22,sink_1] 1.6354166666666970e+01
flow[sink_24,sink_21] 1.9076004073887731e+01
flow[sink_21,sink_12] 2.7218374072210629e+00
flow[sink_7,sink_5] 1.6354166666667368e+01
flow[sink_5,sink_17] 0
flow[sink_17,sink_4] -1.6354166666672256e+01
flow[sink_17,sink_8] 0
flow[sink_3,sink_23] 16.3541666666697
flow[sink_8,sink_20] -1.6354166666668334e+01
flow[sink_25,sink_20] 3.2708333333335005e+01
flow[sink_25,sink_15] -9.0647737867893326e+01
flow[sink_15,sink_29] -6.0008944935717928e+01
flow[sink_29,sink_28] 1.6354166666667879e+01
flow[sink_29,sink_2] 6.3347126265508741e+01
flow[sink_2,sink_15] 4.6992959598842077e+01
flow[sink_29,innode_7] -1.5606440453456122e+02
flow[innode_4,sink_19] 4.7616404488992551e+01
flow[sink_19,innode_3] 4.3810088185680073e+01
flow[innode_4,innode_5] 7.4867476237904270e+01
flow[sink_27,innode_5] -7.4867476237904270e+01
flow[sink_27,sink_19] 58.5133095712376
flow[sink_10,sink_11] 3.2708333333333641e+01
flow[sink_10,innode_2] -4.5965459207883029e+01
flow[sink_10,innode_3] -4.3810088185680073e+01
flow[innode_6,sink_25] 8.0047140602293751e+00
flow[sink_11,innode_1] 1.6354166666666970e+01
flow[sink_19,innode_2] 4.5965459207883029e+01
flow[source_3,innode_4] 1.2248388072689681e+02
flow[source_2,innode_7] 1.5606440453456122e+02
flow[sink_3,innode_8] 1.4938188547910727e+02
pressure[innode_1] 7.6503022456556337e+01
pressure[innode_2] 7.9084188126860766e+01
pressure[innode_3] 7.8987175647527849e+01
pressure[innode_4] 81.01325
pressure[innode_5] 8.0961752202069320e+01
pressure[innode_6] 7.4641332846626284e+01
pressure[innode_7] 81.01325
pressure[innode_8] 80.4045919594949
pressure[source_1] 81.01325
pressure[source_2] 81.01325
pressure[source_3] 81.01325
pressure[sink_1] 4.1592284925874864e+01
pressure[sink_2] 7.5234484360429335e+01
pressure[sink_3] 80.4045919594949
pressure[sink_4] 5.6469241034768913e+01
pressure[sink_5] 3.5956413266044628e+01
pressure[sink_6] 4.3693362536262235e+01
pressure[sink_7] 4.2757983292939343e+01
pressure[sink_8] 6.5704110766706066e+01
pressure[sink_9] 5.1655402438543739e+01
pressure[sink_10] 7.6654723764159883e+01
pressure[sink_11] 7.6503022456556337e+01
pressure[sink_12] 1.01325
pressure[sink_13] 7.4685461497528337e+01
pressure[sink_14] 7.4729053789506963e+01
pressure[sink_15] 7.5081062704420589e+01
pressure[sink_16] 7.5481372621738657e+01
pressure[sink_17] 5.5844238710966351e+01
pressure[sink_18] 4.6822978298282472e+01
pressure[sink_19] 7.9084188126860766e+01
pressure[sink_20] 6.6843766190294360e+01
pressure[sink_21] 1.9818287162308093e+00
pressure[sink_22] 4.2656054068229871e+01
pressure[sink_23] 8.0239873947835108e+01
pressure[sink_24] 2.1930777376275588e+00
pressure[sink_25] 7.4641332846626284e+01
pressure[sink_26] 6.0627863187715349e+01
pressure[sink_27] 80.3404904895159
pressure[sink_28] 7.6543856286685653e+01
pressure[sink_29] 7.6839138560302843e+01
interdiction[source_1,sink_3] 0
interdiction[innode_1,sink_16] 0
interdiction[innode_6,sink_13] 0
interdiction[sink_13,sink_14] 0
interdiction[sink_14,sink_10] 0
interdiction[sink_25,sink_26] 0
interdiction[sink_26,sink_9] 0
interdiction[sink_9,sink_18] 0
interdiction[sink_26,sink_4] 0
interdiction[sink_4,sink_20] 1
interdiction[sink_18,sink_6] 0
interdiction[sink_25,innode_8] 0
interdiction[sink_6,sink_7] 0
interdiction[sink_6,sink_22] 0
interdiction[sink_7,sink_24] 0
interdiction[sink_22,sink_1] 0
interdiction[sink_24,sink_21] 0
interdiction[sink_21,sink_12] 0
interdiction[sink_7,sink_5] 0
interdiction[sink_5,sink_17] 1
interdiction[sink_17,sink_4] 0
interdiction[sink_17,sink_8] 1
interdiction[sink_3,sink_23] 0
interdiction[sink_8,sink_20] 0
interdiction[sink_25,sink_20] 0
interdiction[sink_25,sink_15] 0
interdiction[sink_15,sink_29] 0
interdiction[sink_29,sink_28] 0
interdiction[sink_29,sink_2] 0
interdiction[sink_2,sink_15] 0
interdiction[sink_29,innode_7] 0
interdiction[innode_4,sink_19] 0
interdiction[sink_19,innode_3] 0
interdiction[innode_4,innode_5] 0
interdiction[sink_27,innode_5] 0
interdiction[sink_27,sink_19] 0
interdiction[sink_10,sink_11] 0
interdiction[sink_10,innode_2] 0
interdiction[sink_10,innode_3] 0
interdiction[innode_6,sink_25] 0
interdiction[sink_11,innode_1] 0
interdiction[sink_19,innode_2] 0
interdiction[source_3,innode_4] 0
interdiction[source_2,innode_7] 0
interdiction[sink_3,innode_8] 0
WCcheckFlow[source_1,sink_3] 39
WCcheckFlow[innode_1,sink_16] 1
WCcheckFlow[innode_6,sink_13] 13
WCcheckFlow[sink_13,sink_14] 12
WCcheckFlow[sink_14,sink_10] 11
WCcheckFlow[sink_25,sink_26] 13
WCcheckFlow[sink_26,sink_9] 10
WCcheckFlow[sink_9,sink_18] 9
WCcheckFlow[sink_26,sink_4] 2
WCcheckFlow[sink_4,sink_20] 0
WCcheckFlow[sink_18,sink_6] 8
WCcheckFlow[sink_25,innode_8] -36
WCcheckFlow[sink_6,sink_7] 5
WCcheckFlow[sink_6,sink_22] 2
WCcheckFlow[sink_7,sink_24] 3
WCcheckFlow[sink_22,sink_1] 1
WCcheckFlow[sink_24,sink_21] 2
WCcheckFlow[sink_21,sink_12] 1
WCcheckFlow[sink_7,sink_5] 1
WCcheckFlow[sink_5,sink_17] 0
WCcheckFlow[sink_17,sink_4] -1
WCcheckFlow[sink_17,sink_8] 0
WCcheckFlow[sink_3,sink_23] 1
WCcheckFlow[sink_8,sink_20] -1
WCcheckFlow[sink_25,sink_20] 2
WCcheckFlow[sink_25,sink_15] 6
WCcheckFlow[sink_15,sink_29] 5
WCcheckFlow[sink_29,sink_28] 1
WCcheckFlow[sink_29,sink_2] 1
WCcheckFlow[sink_2,sink_15] 0
WCcheckFlow[sink_29,innode_7] 2
WCcheckFlow[innode_4,sink_19] -4
WCcheckFlow[sink_19,innode_3] -5
WCcheckFlow[innode_4,innode_5] 2
WCcheckFlow[sink_27,innode_5] -1
WCcheckFlow[sink_27,sink_19] 0
WCcheckFlow[sink_10,sink_11] 3
WCcheckFlow[sink_10,innode_2] 1
WCcheckFlow[sink_10,innode_3] 6
WCcheckFlow[innode_6,sink_25] -14
WCcheckFlow[sink_11,innode_1] 2
WCcheckFlow[sink_19,innode_2] 0
WCcheckFlow[source_3,innode_4] -1
WCcheckFlow[source_2,innode_7] -1
WCcheckFlow[sink_3,innode_8] 37
